46
0 1 2 1 3 4 5 6 6 4 7 8 9 10 11 12 13 14 15 16 17 18 19 3 6 20 21 22 23 24 25 26 24 27 15 2 17 28 10 29 4 30 0 31 19 20 25 32 33 9 34 26 1 23 35 36 37 35 18 30 38 28 37 27 39 40 31 11 28 41 40 42 34 22 5 43 34 44 39 33 26 43 29 7 32 32 38 44 15 41 24 42 45 18 36 16 11 13 10 12 
